g3 1 1 0	# problem unknown
 2 3 1 0 0 	# vars, constraints, objectives, ranges, eqns
 1 1 0 0 0 0	# nonlinear constrs, objs; ccons: lin, nonlin, nd, nzlb
 0 0	# network constraints: nonlinear, linear
 2 2 2 	# nonlinear vars in constraints, objectives, both
 0 0 0 1	# linear network variables; functions; arith, flags
 0 0 0 0 0 	# discrete variables: binary, integer, nonlinear (b,c,o)
 4 2 	# nonzeros in Jacobian, obj. gradient
 0 0	# max name lengths: constraints, variables
 0 0 0 0 0	# common exprs: b,c,o,c1,o1
C0
o2
n-1
o2
v0
v1
C1
n0
C2
n0
O0 0
o54
44
o5
o54
3
o2
n-1
v0
o16
o0
o2
n-1
v0
n0.49
n0.49
n2
o5
o54
3
o2
n-1
v0
o16
o0
o2
n-1
v0
n0.49
n0.49
n2
o5
o54
3
o2
n-1
v0
o16
o2
o0
o2
n-1
v0
n0.49
o44
o2
n-2
v1
n0.48
n2
o5
o54
3
o2
n-1
v0
o16
o2
o0
o2
n-1
v0
n0.49
o44
o2
n-2
v1
n0.47
n2
o5
o54
3
o2
n-1
v0
o16
o2
o0
o2
n-1
v0
n0.49
o44
o2
n-2
v1
n0.48
n2
o5
o54
3
o2
n-1
v0
o16
o2
o0
o2
n-1
v0
n0.49
o44
o2
n-2
v1
n0.47
n2
o5
o54
3
o2
n-1
v0
o16
o2
o0
o2
n-1
v0
n0.49
o44
o2
n-4
v1
n0.46
n2
o5
o54
3
o2
n-1
v0
o16
o2
o0
o2
n-1
v0
n0.49
o44
o2
n-4
v1
n0.46
n2
o5
o54
3
o2
n-1
v0
o16
o2
o0
o2
n-1
v0
n0.49
o44
o2
n-4
v1
n0.45
n2
o5
o54
3
o2
n-1
v0
o16
o2
o0
o2
n-1
v0
n0.49
o44
o2
n-4
v1
n0.43
n2
o5
o54
3
o2
n-1
v0
o16
o2
o0
o2
n-1
v0
n0.49
o44
o2
n-6
v1
n0.45
n2
o5
o54
3
o2
n-1
v0
o16
o2
o0
o2
n-1
v0
n0.49
o44
o2
n-6
v1
n0.43
n2
o5
o54
3
o2
n-1
v0
o16
o2
o0
o2
n-1
v0
n0.49
o44
o2
n-6
v1
n0.43
n2
o5
o54
3
o2
n-1
v0
o16
o2
o0
o2
n-1
v0
n0.49
o44
o2
n-8
v1
n0.44
n2
o5
o54
3
o2
n-1
v0
o16
o2
o0
o2
n-1
v0
n0.49
o44
o2
n-8
v1
n0.43
n2
o5
o54
3
o2
n-1
v0
o16
o2
o0
o2
n-1
v0
n0.49
o44
o2
n-8
v1
n0.43
n2
o5
o54
3
o2
n-1
v0
o16
o2
o0
o2
n-1
v0
n0.49
o44
o2
n-10
v1
n0.46
n2
o5
o54
3
o2
n-1
v0
o16
o2
o0
o2
n-1
v0
n0.49
o44
o2
n-10
v1
n0.45
n2
o5
o54
3
o2
n-1
v0
o16
o2
o0
o2
n-1
v0
n0.49
o44
o2
n-12
v1
n0.42
n2
o5
o54
3
o2
n-1
v0
o16
o2
o0
o2
n-1
v0
n0.49
o44
o2
n-12
v1
n0.42
n2
o5
o54
3
o2
n-1
v0
o16
o2
o0
o2
n-1
v0
n0.49
o44
o2
n-12
v1
n0.43
n2
o5
o54
3
o2
n-1
v0
o16
o2
o0
o2
n-1
v0
n0.49
o44
o2
n-14
v1
n0.41
n2
o5
o54
3
o2
n-1
v0
o16
o2
o0
o2
n-1
v0
n0.49
o44
o2
n-14
v1
n0.41
n2
o5
o54
3
o2
n-1
v0
o16
o2
o0
o2
n-1
v0
n0.49
o44
o2
n-14
v1
n0.4
n2
o5
o54
3
o2
n-1
v0
o16
o2
o0
o2
n-1
v0
n0.49
o44
o2
n-16
v1
n0.42
n2
o5
o54
3
o2
n-1
v0
o16
o2
o0
o2
n-1
v0
n0.49
o44
o2
n-16
v1
n0.4
n2
o5
o54
3
o2
n-1
v0
o16
o2
o0
o2
n-1
v0
n0.49
o44
o2
n-16
v1
n0.4
n2
o5
o54
3
o2
n-1
v0
o16
o2
o0
o2
n-1
v0
n0.49
o44
o2
n-18
v1
n0.41
n2
o5
o54
3
o2
n-1
v0
o16
o2
o0
o2
n-1
v0
n0.49
o44
o2
n-18
v1
n0.4
n2
o5
o54
3
o2
n-1
v0
o16
o2
o0
o2
n-1
v0
n0.49
o44
o2
n-18
v1
n0.41
n2
o5
o54
3
o2
n-1
v0
o16
o2
o0
o2
n-1
v0
n0.49
o44
o2
n-20
v1
n0.41
n2
o5
o54
3
o2
n-1
v0
o16
o2
o0
o2
n-1
v0
n0.49
o44
o2
n-20
v1
n0.4
n2
o5
o54
3
o2
n-1
v0
o16
o2
o0
o2
n-1
v0
n0.49
o44
o2
n-22
v1
n0.4
n2
o5
o54
3
o2
n-1
v0
o16
o2
o0
o2
n-1
v0
n0.49
o44
o2
n-22
v1
n0.4
n2
o5
o54
3
o2
n-1
v0
o16
o2
o0
o2
n-1
v0
n0.49
o44
o2
n-22
v1
n0.38
n2
o5
o54
3
o2
n-1
v0
o16
o2
o0
o2
n-1
v0
n0.49
o44
o2
n-24
v1
n0.41
n2
o5
o54
3
o2
n-1
v0
o16
o2
o0
o2
n-1
v0
n0.49
o44
o2
n-24
v1
n0.4
n2
o5
o54
3
o2
n-1
v0
o16
o2
o0
o2
n-1
v0
n0.49
o44
o2
n-26
v1
n0.4
n2
o5
o54
3
o2
n-1
v0
o16
o2
o0
o2
n-1
v0
n0.49
o44
o2
n-28
v1
n0.41
n2
o5
o54
3
o2
n-1
v0
o16
o2
o0
o2
n-1
v0
n0.49
o44
o2
n-28
v1
n0.38
n2
o5
o54
3
o2
n-1
v0
o16
o2
o0
o2
n-1
v0
n0.49
o44
o2
n-30
v1
n0.4
n2
o5
o54
3
o2
n-1
v0
o16
o2
o0
o2
n-1
v0
n0.49
o44
o2
n-30
v1
n0.4
n2
o5
o54
3
o2
n-1
v0
o16
o2
o0
o2
n-1
v0
n0.49
o44
o2
n-32
v1
n0.39
n2
o5
o54
3
o2
n-1
v0
o16
o2
o0
o2
n-1
v0
n0.49
o44
o2
n-34
v1
n0.39
n2
x2
0 0.42
1 5.0
r
2 0.09
2 0.4
2 -4.0
b
3
3
k1
2
J0 2
1 0.49
0 0
J1 1
0 1
J2 1
1 1
G0 2
0 0
1 0
